467
3629
3552
2341
1886
2129
3138
1795
906
774
1835
1724
1249
1056
1105
2883
291
522
2462
3289
2413
2455
2931
974
1940
1363
2822
3289
2108
2947
992
2605
1763
770
1305
1406
1331
2431
1831
1855
1963
1196
3281
3173
1522
2614
3740
1585
2079
3559
1041
2966
2647
3285
2296
2079
1116
292
3508
2979
2584
3176
187
947
1305
1220
1210
1185
3122
2003
2022
3301
2004
2944
3276
2307
1504
3199
3124
1598

1460
129438
117753
61518
52110
80421
98636

34
3013
2741
1432
1213
1872
2296

5400.43

2
148
135
71
60
92
113
61
33
6
61
66
15
19
20
130
2
15
111
143
95
90
137
31
75
33
114
141
102
123
4
124
87
32
50
52
25
108
51
49
73
10
140
111
27
125
142
75
99
147
44
139
91
148
110
96
30
2
149
141
86
114
2
4
43
21
36
58
140
86
75
133
52
122
120
105
65
120
120
76
